data;
param nbFct:=10;
param nbSig:=3;
param nbCpu:= 1;
param nbBus:= 0;
param nbPath:=7;
param M:= 10000;
param CS:= 0.5;
set CPU4FCT[1]:=1;
set CPU4FCT[2]:=1;
set CPU4FCT[3]:=1;
set CPU4FCT[4]:=1;
set CPU4FCT[5]:=1;
set CPU4FCT[6]:=1;
set CPU4FCT[7]:=1;
set CPU4FCT[8]:=1;
set CPU4FCT[9]:=1;
set CPU4FCT[10]:=1;
set DEST[0]:=;
set DEST[1]:=2;
set DEST[2]:=3;
set DEST[3]:=5;
param wcet:1	:=

 1 		 8.01 		 
 2 		 9.69 		 
 3 		 5.78 		 
 4 		 9.37 		 
 5 		 2.46 		 
 6 		 4.07 		 
 7 		 4.61 		 
 8 		 1.66 		 
 9 		 6.96 		 
 10 		 4.2 		 ;
param wctt::=

 0 		 
 1 		 
 2 		 
 3 		 ;
param per:=
1		1298.0
2		1298.0
3		1298.0
4		646.0
5		646.0
6		211.0
7		241.0
8		76.0
9		373.0
10		218.0
;
param perS:=
0		1
1		1298.0
2		1298.0
3		646.0
;
param MaxU :=
1		0.8
;
param MaxUB :=
;
param src:=
0		0
1		1
2		2
3		4
;
param path :1		2		3		4		5		6		7		8		9		10		:=

1		0		0		0		1		1		1		1		1		1		1		
2		0		0		0		1		1		1		1		1		1		1		
3		0		0		0		1		1		1		1		1		1		1		
4		1		1		1		0		0		1		1		1		1		1		
5		1		1		1		0		0		1		1		1		1		1		
6		1		1		1		1		1		0		1		1		1		1		
7		1		1		1		1		1		1		0		1		1		1		
8		1		1		1		1		1		1		1		0		1		1		
9		1		1		1		1		1		1		1		1		0		1		
10		1		1		1		1		1		1		1		1		1		0		;
param pathS :0		1		2		3		:=
0		0		0		0		0		
1		0		0		0		1		
2		0		0		0		1		
3		0		1		1		0		;
param dead :=
1	1298.0
2	646.0
3	211.0
4	241.0
5	76.0
6	373.0
7	218.0
;
param lastF :=
1	3
2	5
3	6
4	7
5	8
6	9
7	10
;
param dep :1		2		3		4		5		6		7		8		9		10		:=

1		0		1		1		0		0		0		0		0		0		0		
2		0		0		1		0		0		0		0		0		0		0		
3		0		0		0		0		0		0		0		0		0		0		
4		0		0		0		0		1		0		0		0		0		0		
5		0		0		0		0		0		0		0		0		0		0		
6		0		0		0		0		0		0		0		0		0		0		
7		0		0		0		0		0		0		0		0		0		0		
8		0		0		0		0		0		0		0		0		0		0		
9		0		0		0		0		0		0		0		0		0		0		
10		0		0		0		0		0		0		0		0		0		0		;
param depS :0		1		2		3		:=
0		0		0		0		0		
1		0		0		1		0		
2		0		0		0		0		
3		0		0		0		0		;
param trans:=
1		1
2		1
3		1
4		2
5		2
6		3
7		4
8		5
9		6
10		7
;
end;
